130 6579
1 41 71 39 128 105 112 117 3 114 8 21 33 93 37 22 40 47 23 13 67 96 10 14 102 6 55 122 44 42 51 60 120 53 49 92 38 79 116 95 12 87 81 103 77 94 89 110 98 48 25 68 63 43 104 127 107 70 7 97 26 88 86 69 64 124 129 61 109 76 11 5 45 16 62 28 115 83 30 59 90 125 85 66 78 121 126 108 18 80 118 35 54 17 34 31 100 27 19 15 24 29 113 32 36 84 119 111 123 101 82 57 9 56 65 52 75 74 73 99 91 72 58 106 4 20 46 2 50 130 
